[1, 2, 10, 12, 10, 5, 8, 7, 11, 6, 9, 12, 12, 7, 12, 13, 17, 18, 12, 7, 13, 15, 24, 23, 25, 26, 27, 28, 28, 31, 30, 34, 36, 36, 34, 35, 51, 37, 54, 40, 48, 45, 43, 42, 45, 45, 49, 45, 46, 54, 50, 51, 53, 53, 55, 57, 51, 59, 60, 58, 66, 64, 61, 62, 63, 67, 67, 68, 71, 73, 72, 80, 76, 79, 80, 81, 75, 76, 82, 80, 81, 82, 83, 84, 80, 79, 81, 80, 90, 91, 90, 92, 93, 79, 84, 83, 75, 98, 99, 101, 100, 101, 103, 97, 100, 96, 108, 107, 109, 110, 109, 111, 109, 116, 116, 115, 117, 118, 125, 120, 124, 119, 123, 121, 122, 122, 129, 128, 127, 130, 127, 124, 133, 134, 135, 137, 138, 138, 137, 141, 140, 139, 139, 133, 134, 138, 136, 147, 150, 149, 150, 153, 152, 156, 157, 158, 162, 161, 156, 157, 159, 160, 166, 170, 167, 168, 168, 167, 173, 170, 172, 169, 171, 173, 175, 185, 182, 180, 180, 179, 181, 183, 182, 186, 184, 183, 183, 183, 184, 190, 195, 198, 196, 190, 188, 193, 199, 198, 197, 200, 201, 198, 197, 204, 207, 206, 205, 208, 211, 210, 212, 209, 213, 213, 214, 216, 217, 218, 220, 221, 219, 222, 221, 216, 225, 225, 228, 228, 229, 230, 231, 233, 232, 233, 235, 236, 237, 239, 240, 239, 246, 242, 245, 241, 244, 243, 244, 246, 245, 250, 250, 247, 248, 250, 255, 256, 257, 257, 258, 261, 260, 259, 262, 264, 265, 266, 268, 268, 269, 270, 269, 273, 274, 275, 276, 277, 276, 278, 277, 131]
[4, 8, 14, 16, 17, 23, 24, 26, 29, 34, 45, 50, 50, 50, 52, 52, 53, 53, 54, 57, 58, 59, 61, 65, 67, 70, 78, 78, 78, 81, 81, 82, 82, 96, 97, 98, 99, 99, 110, 114, 115, 115, 121, 121, 127, 128, 129, 130, 132, 132, 134, 135, 146, 148, 152, 155, 155, 156, 156, 158, 165, 168, 169, 169, 171, 172, 172, 174, 179, 179, 182, 182, 182, 182, 187, 189, 189, 192, 194, 197, 197, 197, 198, 199, 200, 203, 204, 206, 208, 209, 210, 211, 212, 212, 213, 215, 215, 216, 217, 218, 219, 230, 231, 235, 239, 240, 241, 246, 247, 254, 256, 256, 260, 263, 267, 267, 272, 276, 276, 289, 291, 291, 295, 302, 304, 308, 312, 312, 315, 320, 321, 324, 327, 328, 335, 337, 339, 341, 342, 344, 345, 345, 346, 349, 350, 351, 359, 359, 359, 362, 362, 368, 368, 370, 371, 386, 387, 387, 387, 388, 393, 395, 396, 398, 401, 409, 411, 411, 412, 412, 414, 415, 415, 416, 416, 416, 417, 417, 419, 425, 427, 428, 428, 431, 437, 438, 439, 446, 446, 448, 448, 450, 458, 458, 459, 461, 461, 461, 461, 462, 462, 464, 471, 473, 475, 475, 476, 476, 476, 478, 483, 484, 485, 486, 490, 492, 496, 498, 500, 508, 509, 514, 519, 521, 522, 522, 525, 526, 528, 528, 528, 534, 539, 547, 547, 565, 566, 567, 567, 575, 581, 588, 591, 591, 594, 597, 603, 605, 610, 610, 611, 611, 616, 617, 618, 619, 621, 624, 624, 625, 633, 633, 639, 639, 647, 647, 648, 649, 654, 655, 658, 658, 664, 667, 673, 673, 675, 676, 678, 681, 681, 682, 688, 692, 693, 695, 695, 695, 696, 696, 698, 704, 706, 709, 710, 718, 724, 724, 726, 727, 727, 728, 736, 737, 737, 738, 741, 741, 743, 750, 753, 754, 754, 756, 761, 762, 763, 765, 767, 770, 770, 775, 785, 785, 787, 789, 790, 790, 794, 796, 796, 797, 799, 803, 803, 804, 807, 807, 807, 816, 817, 832, 833, 833, 838, 842, 846, 846, 847, 848, 848, 848, 848, 848, 849, 849, 859, 862, 863, 864, 864, 866, 870, 870, 872, 872, 876, 879, 884, 886, 890, 890, 891, 893, 895, 903, 903, 909, 918, 918, 927, 933, 934, 939, 943, 945, 945, 945, 947, 951, 952, 952, 957, 958, 958, 964, 966, 970, 970, 973, 973, 975, 975, 976, 985, 988, 995, 996, 1002, 1008, 1009, 1009, 1011, 1015, 1016, 1016, 1017, 1020, 1020, 1024, 1042, 1047, 1048, 1050, 1053, 1055, 1056, 1058, 1061, 1061, 1064, 1064, 1067, 1068, 1069, 1069, 1071, 1072, 1080, 1080, 1081, 1081, 1084, 1093, 1093, 1095, 1096, 1098, 1101, 1105, 1105, 1106, 1112, 1112, 1113, 1113, 1120, 1121, 1123, 1124, 1127, 1127, 1127, 1127, 1127, 1130, 1140, 1141, 1143, 1143, 1146, 1155, 1157, 1158, 1164, 1165, 1168, 1168, 1170, 1173, 1174, 1177, 1178, 1179, 1187, 1190, 1190, 1191, 1191, 1197, 1197, 1205, 1205, 1206, 1211, 1213, 1218, 1223, 1224, 1224, 1224, 1225, 1232, 1234, 1236, 1243, 1244, 1245, 1249, 1249, 1252, 1252, 1254, 1254, 1255, 1264, 1268, 1274, 1275, 1277, 1283, 1283, 1284, 1288, 1288, 1290, 1297, 1297, 1300, 1310, 1314, 1316, 1321, 1325, 1326, 1329, 1331, 1331, 1334, 1335, 1336, 1336, 1340, 1340, 1350, 1355, 1360, 1360, 1361, 1361, 1363, 1365, 1365, 1365, 1370, 1371, 1373, 1375, 1384, 1384, 1389, 1390, 1391, 1391, 1393]
